language ESSENCE' 1.0

letting jobs = 102
letting horizon = 775
letting resourcesRenew = 2
letting resourcesNonrenew = 2
letting resourceLimits = [17, 16, 581, 620]
letting successors = [[2, 3, 4, 5, 7, 8, 11, 12, 13, 17, 18], [39, 35, 30, 28, 24, 22, 6], [36, 33, 28, 25, 23, 22, 21, 20, 9], [32, 29, 20, 19, 16, 15, 14, 10], [42, 39, 36, 34, 33, 29, 27, 25, 15, 14], [45, 41, 36, 32, 29, 27, 25, 23, 20, 15], [52, 49, 45, 44, 39, 31, 30, 29, 28, 27, 26, 22], [56, 53, 49, 45, 44, 43, 41, 39, 36, 34, 33, 31, 29, 27, 26], [56, 52, 49, 45, 44, 43, 41, 40, 39, 32, 29, 27, 26], [64, 51, 49, 44, 43, 39, 36, 31, 30, 28, 26, 24], [64, 52, 49, 44, 43, 38, 34, 33, 32, 28, 27], [64, 56, 53, 52, 51, 49, 46, 44, 43, 40, 37, 32, 30, 26], [64, 60, 59, 56, 53, 52, 51, 49, 48, 44, 43, 42, 41, 40, 38, 37], [58, 55, 51, 48, 46, 45, 38, 31, 30, 28], [66, 64, 57, 56, 55, 51, 49, 46, 44, 40, 37, 26], [59, 58, 56, 55, 53, 45, 44, 43, 41, 40, 38, 30], [66, 59, 52, 51, 49, 45, 44, 43, 42, 40, 33, 29], [64, 62, 59, 56, 55, 54, 53, 51, 42, 38, 36, 33], [75, 66, 60, 50, 49, 46, 43, 25], [74, 64, 63, 60, 59, 58, 56, 55, 54, 50, 47, 43, 42, 31], [65, 62, 61, 59, 58, 53, 52, 51, 48, 47, 43, 41, 30], [74, 60, 59, 55, 53, 43, 42, 40, 38, 34], [75, 72, 67, 66, 64, 61, 60, 58, 55, 54, 53, 51, 40, 37], [101, 75, 74, 71, 67, 66, 61, 60, 58, 55, 53, 52, 46, 40], [72, 65, 64, 63, 62, 59, 52, 51, 48, 38], [81, 75, 72, 65, 63, 60, 59, 54, 50, 48, 38], [82, 75, 67, 66, 62, 60, 51, 48, 46, 37], [82, 75, 72, 66, 63, 59, 57, 56, 53, 40], [101, 81, 77, 74, 71, 70, 69, 65, 63, 58, 57, 54, 50], [101, 92, 82, 81, 77, 74, 71, 69, 66, 63, 60, 57, 54, 50], [101, 80, 75, 72, 71, 68, 66, 57, 40], [99, 98, 81, 71, 70, 66, 65, 62, 61, 58, 57, 55, 47], [101, 81, 79, 74, 72, 71, 69, 68, 63, 60, 58, 48], [81, 78, 73, 72, 71, 70, 69, 63, 61, 54, 47], [101, 82, 81, 75, 74, 71, 68, 65, 61, 60, 46], [98, 81, 80, 75, 73, 72, 71, 60, 57, 52, 47], [101, 81, 80, 78, 77, 74, 70, 65, 63, 50], [98, 80, 71, 69, 61, 47], [101, 99, 95, 93, 82, 78, 77, 73, 71, 70, 67, 55], [98, 96, 90, 87, 81, 79, 77, 76, 73, 70, 69, 65, 62], [95, 92, 78, 76, 75, 73, 72, 69, 66, 63], [99, 98, 97, 96, 93, 82, 79, 78, 68, 65, 61], [101, 98, 96, 92, 91, 90, 77, 69, 68, 57], [101, 94, 81, 79, 78, 77, 76, 73, 65, 54], [100, 99, 97, 96, 93, 79, 78, 73, 70, 67, 64], [95, 92, 79, 77, 69, 63, 54], [101, 100, 96, 94, 93, 91, 90, 87, 85, 82, 79, 68, 67], [99, 98, 96, 94, 92, 80, 77, 76, 73, 70], [101, 92, 87, 77, 76, 68, 58], [97, 96, 94, 90, 87, 85, 84, 79, 76, 73, 68], [100, 98, 92, 91, 88, 84, 80, 78, 74, 70], [97, 94, 93, 92, 91, 89, 88, 87, 86, 78, 77, 76], [100, 99, 96, 94, 91, 90, 89, 85, 80, 68], [98, 97, 96, 93, 91, 90, 88, 86, 85, 84, 83, 80], [100, 97, 96, 94, 92, 90, 89, 87, 86, 85, 84, 79], [97, 96, 95, 90, 88, 86, 85, 79, 67], [97, 95, 94, 93, 88, 87, 85, 67], [97, 95, 91, 90, 86, 84, 83, 82, 78], [101, 94, 93, 92, 90, 89, 87, 86, 85, 83], [99, 96, 95, 90, 89, 88, 84, 83, 78], [94, 92, 91, 90, 89, 87, 77, 76], [95, 94, 93, 92, 88, 84, 83, 78], [100, 99, 98, 94, 93, 86, 84, 83], [98, 92, 91, 90, 87, 86, 81], [95, 92, 88, 86, 85], [97, 91, 90, 89], [89, 84, 76], [95, 86, 83], [100, 99, 89], [89, 86, 85], [97, 87, 85], [83, 77], [91, 88], [96, 93], [93, 87], [83], [84], [85], [83], [87], [84], [88], [102], [102], [102], [102], [102], [102], [102], [102], [102], [102], [102], [102], [102], [102], [102], [102], [102], [102], [102], []]
letting durations = [[0], [2, 6, 8], [1, 6, 7], [4, 8, 9], [1, 3, 5], [5, 6, 7], [1, 2, 3], [4, 6, 9], [1, 4, 9], [7, 8, 9], [2, 3, 4], [3, 4, 8], [1, 5, 6], [7, 9, 10], [1, 8, 10], [8, 9, 10], [1, 3, 4], [4, 5, 8], [5, 6, 10], [1, 8, 9], [2, 5, 10], [3, 4, 9], [2, 3, 9], [4, 6, 7], [3, 4, 6], [7, 8, 10], [1, 2, 4], [2, 4, 6], [2, 3, 4], [2, 5, 6], [6, 8, 9], [5, 8, 10], [2, 6, 8], [6, 8, 9], [1, 6, 9], [1, 5, 6], [1, 2, 4], [2, 3, 10], [3, 8, 9], [2, 4, 9], [2, 5, 7], [5, 8, 9], [3, 4, 7], [3, 4, 7], [1, 8, 10], [1, 6, 7], [3, 4, 6], [3, 4, 5], [1, 4, 5], [5, 8, 9], [4, 7, 10], [1, 4, 5], [5, 9, 10], [1, 9, 10], [6, 8, 10], [3, 7, 8], [4, 5, 8], [2, 4, 9], [5, 7, 9], [1, 8, 9], [8, 9, 10], [1, 5, 8], [1, 6, 7], [1, 3, 4], [2, 7, 9], [1, 5, 9], [3, 6, 9], [1, 3, 7], [1, 2, 10], [2, 3, 5], [4, 8, 9], [3, 7, 9], [3, 7, 10], [3, 6, 8], [1, 2, 6], [2, 8, 9], [1, 5, 9], [3, 6, 8], [4, 5, 8], [1, 3, 9], [1, 2, 10], [2, 4, 7], [1, 3, 9], [1, 6, 9], [3, 4, 5], [4, 5, 7], [1, 2, 4], [1, 6, 10], [1, 6, 7], [3, 7, 8], [2, 9, 10], [1, 6, 8], [2, 4, 5], [3, 4, 5], [1, 6, 8], [3, 4, 6], [4, 6, 8], [2, 5, 7], [2, 3, 4], [5, 6, 8], [4, 6, 8], [0]]
letting resourceUsage = [[[0, 0, 0, 0]], [[2, 2, 10, 5], [2, 2, 9, 3], [2, 1, 9, 1]], [[5, 4, 6, 10], [4, 2, 4, 6], [4, 2, 2, 5]], [[2, 3, 5, 8], [2, 2, 3, 6], [2, 1, 3, 6]], [[4, 4, 9, 7], [2, 3, 8, 5], [2, 3, 8, 4]], [[4, 5, 10, 7], [4, 4, 6, 7], [4, 3, 4, 7]], [[4, 2, 7, 9], [3, 2, 6, 7], [3, 2, 6, 6]], [[2, 1, 3, 10], [1, 1, 3, 9], [1, 1, 2, 8]], [[3, 2, 6, 2], [3, 2, 5, 1], [3, 2, 3, 1]], [[2, 4, 10, 9], [1, 3, 10, 7], [1, 2, 10, 7]], [[3, 4, 6, 8], [2, 3, 4, 6], [1, 3, 1, 6]], [[4, 2, 7, 10], [4, 1, 4, 9], [3, 1, 3, 9]], [[4, 5, 10, 5], [4, 3, 10, 4], [3, 1, 10, 2]], [[4, 4, 8, 4], [4, 2, 6, 3], [4, 1, 6, 2]], [[3, 2, 5, 4], [2, 2, 5, 3], [2, 2, 3, 1]], [[4, 1, 4, 8], [3, 1, 2, 7], [3, 1, 1, 6]], [[4, 2, 6, 9], [3, 2, 6, 5], [2, 2, 4, 5]], [[4, 4, 6, 2], [2, 4, 5, 2], [1, 3, 5, 2]], [[2, 5, 3, 8], [2, 4, 3, 7], [2, 4, 3, 6]], [[4, 4, 4, 6], [2, 3, 3, 6], [1, 2, 3, 5]], [[5, 2, 7, 1], [5, 2, 6, 1], [5, 1, 2, 1]], [[2, 4, 9, 9], [2, 3, 6, 8], [2, 3, 5, 7]], [[3, 3, 7, 4], [2, 2, 5, 3], [1, 2, 2, 3]], [[4, 1, 7, 10], [2, 1, 5, 5], [1, 1, 5, 2]], [[5, 3, 10, 9], [3, 2, 8, 8], [3, 2, 7, 8]], [[5, 3, 6, 8], [4, 2, 6, 6], [3, 2, 4, 5]], [[5, 5, 7, 10], [2, 4, 6, 8], [1, 3, 3, 5]], [[4, 4, 8, 9], [2, 4, 5, 9], [1, 3, 1, 9]], [[1, 3, 5, 8], [1, 2, 5, 8], [1, 2, 5, 7]], [[4, 1, 6, 8], [3, 1, 4, 8], [1, 1, 4, 8]], [[2, 2, 6, 3], [2, 2, 4, 2], [2, 2, 4, 1]], [[4, 4, 10, 9], [4, 3, 7, 7], [4, 2, 4, 6]], [[4, 5, 4, 6], [2, 3, 4, 6], [2, 2, 4, 5]], [[3, 3, 10, 4], [2, 2, 7, 4], [1, 2, 6, 4]], [[4, 3, 5, 7], [2, 3, 4, 7], [1, 2, 3, 7]], [[4, 3, 4, 6], [2, 3, 3, 5], [1, 1, 3, 4]], [[2, 3, 8, 6], [2, 3, 8, 4], [1, 2, 8, 1]], [[4, 3, 7, 7], [4, 3, 3, 4], [2, 3, 3, 3]], [[3, 4, 8, 6], [2, 4, 8, 4], [1, 4, 8, 3]], [[5, 4, 8, 7], [4, 2, 7, 4], [2, 2, 6, 4]], [[3, 3, 8, 5], [1, 2, 3, 5], [1, 1, 1, 5]], [[2, 4, 5, 7], [1, 2, 4, 6], [1, 2, 3, 2]], [[4, 5, 6, 7], [4, 3, 3, 4], [3, 1, 2, 3]], [[5, 5, 10, 8], [4, 3, 8, 7], [2, 3, 5, 7]], [[2, 3, 8, 10], [2, 2, 4, 7], [2, 2, 1, 6]], [[3, 4, 8, 5], [2, 2, 6, 4], [2, 2, 4, 3]], [[4, 4, 6, 8], [4, 4, 5, 6], [4, 4, 5, 3]], [[4, 2, 4, 9], [3, 2, 3, 8], [3, 2, 1, 8]], [[3, 1, 4, 6], [3, 1, 4, 5], [3, 1, 4, 3]], [[3, 4, 4, 7], [3, 4, 3, 6], [2, 4, 3, 6]], [[5, 4, 4, 3], [3, 3, 4, 2], [3, 2, 3, 2]], [[3, 2, 8, 3], [3, 2, 7, 2], [3, 2, 6, 2]], [[2, 3, 6, 8], [2, 3, 3, 8], [2, 3, 3, 7]], [[5, 4, 7, 9], [4, 3, 7, 4], [4, 2, 6, 2]], [[3, 3, 3, 10], [2, 3, 2, 6], [2, 2, 2, 5]], [[4, 2, 6, 7], [2, 1, 6, 6], [1, 1, 5, 6]], [[5, 2, 10, 9], [4, 2, 8, 6], [3, 2, 4, 6]], [[3, 5, 9, 8], [2, 3, 5, 7], [2, 3, 3, 6]], [[4, 1, 6, 7], [3, 1, 3, 5], [3, 1, 3, 1]], [[4, 3, 6, 6], [4, 3, 6, 5], [3, 3, 6, 4]], [[5, 3, 8, 5], [3, 2, 6, 5], [2, 2, 3, 5]], [[4, 4, 10, 3], [4, 3, 5, 3], [4, 3, 4, 3]], [[4, 2, 7, 8], [3, 2, 4, 8], [3, 1, 2, 8]], [[4, 5, 5, 8], [4, 3, 5, 7], [3, 1, 5, 6]], [[3, 4, 5, 5], [3, 4, 5, 4], [2, 2, 5, 5]], [[3, 1, 6, 9], [2, 1, 4, 7], [1, 1, 2, 7]], [[2, 4, 5, 7], [2, 2, 3, 6], [2, 1, 1, 3]], [[4, 5, 3, 6], [3, 4, 3, 6], [3, 3, 3, 6]], [[4, 4, 5, 6], [3, 2, 5, 4], [3, 1, 5, 2]], [[4, 2, 9, 7], [3, 1, 4, 5], [2, 1, 2, 3]], [[4, 3, 9, 7], [4, 3, 6, 7], [4, 3, 5, 7]], [[4, 5, 7, 10], [4, 4, 4, 9], [3, 3, 3, 8]], [[4, 4, 6, 8], [3, 3, 5, 5], [2, 2, 4, 3]], [[2, 2, 8, 9], [1, 2, 7, 7], [1, 2, 6, 4]], [[5, 5, 3, 9], [4, 4, 3, 7], [4, 3, 3, 6]], [[5, 1, 4, 7], [5, 1, 4, 6], [5, 1, 4, 5]], [[3, 3, 10, 8], [3, 2, 7, 8], [3, 2, 6, 8]], [[2, 1, 1, 9], [2, 1, 1, 8], [2, 1, 1, 7]], [[4, 5, 5, 6], [3, 3, 3, 6], [3, 3, 2, 6]], [[1, 2, 7, 9], [1, 2, 6, 6], [1, 1, 2, 2]], [[1, 2, 6, 4], [1, 2, 6, 3], [1, 2, 5, 2]], [[5, 4, 9, 6], [5, 4, 8, 3], [5, 4, 7, 3]], [[4, 2, 2, 7], [4, 2, 2, 6], [3, 2, 2, 4]], [[5, 3, 8, 8], [5, 3, 6, 6], [5, 3, 2, 6]], [[3, 3, 9, 3], [2, 3, 5, 2], [2, 3, 5, 1]], [[5, 5, 5, 6], [4, 3, 5, 5], [4, 3, 4, 5]], [[5, 2, 9, 5], [5, 2, 4, 4], [5, 2, 2, 4]], [[2, 4, 3, 8], [2, 2, 3, 6], [2, 2, 3, 4]], [[2, 2, 4, 8], [2, 2, 2, 6], [2, 2, 1, 6]], [[1, 4, 5, 10], [1, 3, 5, 5], [1, 3, 4, 3]], [[5, 2, 7, 10], [4, 2, 5, 6], [2, 2, 4, 4]], [[1, 2, 6, 4], [1, 1, 5, 3], [1, 1, 2, 2]], [[1, 3, 4, 8], [1, 3, 4, 4], [1, 2, 4, 1]], [[5, 5, 4, 5], [4, 4, 2, 5], [3, 4, 1, 5]], [[4, 2, 8, 5], [3, 1, 6, 5], [3, 1, 3, 5]], [[4, 1, 7, 4], [4, 1, 5, 3], [3, 1, 1, 2]], [[4, 3, 7, 7], [4, 2, 5, 6], [4, 2, 4, 5]], [[3, 5, 6, 1], [2, 4, 4, 1], [2, 3, 3, 1]], [[4, 5, 3, 4], [3, 3, 3, 4], [3, 2, 3, 4]], [[5, 4, 10, 4], [5, 3, 9, 3], [5, 3, 9, 1]], [[2, 5, 7, 4], [2, 4, 6, 2], [2, 3, 4, 1]], [[0, 0, 0, 0]]]
